Maximize
score: + 1.0 c0+ 7.0 c1+ 7.0 c2+ 2.0 c3+ 2.0 c4+ 1.0 c5+ 17.0 c6+ 1.0 c7+ 1.0 c8+ 1.0 c9+ 1.0 c10+ 1.0 c11+ 3.0 c12+ 1.0 c13+ 1.0 c14+ 1.0 c15+ 2.0 c16+ 5.0 c17+ 1.0 c18+ 1.0 c19+ 2.0 c20+ 1.0 c21+ 1.0 c22+ 1.0 c23+ 1.0 c24+ 1.0 c25+ 2.0 c26+ 5.0 c27+ 43.0 c28+ 1.0 c29+ 32.0 c30+ 1.0 c31+ 26.0 c32+ 1.0 c33+ 3.0 c34+ 2.0 c35+ 1.0 c36+ 2.0 c37+ 1.0 c38+ 2.0 c39+ 1.0 c40+ 2.0 c41+ 1.0 c42+ 1.0 c43+ 3.0 c44+ 3.0 c45+ 5.0 c46+ 3.0 c47+ 1.0 c48+ 1.0 c49+ 2.0 c50+ 23.0 c51+ 1.0 c52+ 1.0 c53+ 1.0 c54+ 4.0 c55+ 1.0 c56+ 1.0 c57+ 2.0 c58+ 6.0 c59+ 1.0 c60+ 2.0 c61+ 1.0 c62+ 1.0 c63+ 2.0 c64+ 1.0 c65+ 1.0 c66+ 1.0 c67+ 1.0 c68+ 2.0 c69+ 1.0 c70+ 1.0 c71+ 1.0 c72+ 1.0 c73+ 1.0 c74+ 1.0 c75+ 1.0 c76+ 3.0 c77+ 4.0 c78+ 8.0 c79+ 7.0 c80+ 1.0 c81+ 3.0 c82+ 1.0 c83+ 1.0 c84+ 1.0 c85+ 1.0 c86+ 1.0 c87+ 1.0 c88+ 1.0 c89+ 1.0 c90+ 25.0 c91+ 1.0 c92+ 1.0 c93+ 3.0 c94+ 1.0 c95+ 1.0 c96+ 1.0 c97+ 4.0 c98+ 1.0 c99+ 2.0 c100+ 1.0 c101+ 3.0 c102+ 4.0 c103+ 2.0 c104+ 1.0 c105+ 1.0 c106+ 1.0 c107+ 3.0 c108+ 1.0 c109+ 2.0 c110+ 3.0 c111+ 1.0 c112+ 2.0 c113+ 17.0 c114+ 2.0 c115+ 6.0 c116+ 2.0 c117+ 1.0 c118+ 1.0 c119+ 6.0 c120+ 1.0 c121+ 1.0 c122+ 1.0 c123+ 2.0 c124+ 4.0 c125+ 2.0 c126+ 3.0 c127+ 1.0 c128+ 1.0 c129+ 4.0 c130+ 2.0 c131+ 4.0 c132+ 1.0 c133+ 1.0 c134+ 1.0 c135+ 15.0 c136+ 1.0 c137+ 2.0 c138+ 2.0 c139+ 1.0 c140+ 4.0 c141+ 1.0 c142+ 3.0 c143+ 2.0 c144+ 1.0 c145+ 1.0 c146+ 1.0 c147+ 1.0 c148+ 1.0 c149+ 2.0 c150+ 1.0 c151+ 2.0 c152+ 1.0 c153+ 1.0 c154+ 1.0 c155+ 3.0 c156+ 2.0 c157+ 1.0 c158+ 1.0 c159+ 1.0 c160+ 1.0 c161+ 2.0 c162+ 6.0 c163+ 6.0 c164+ 2.0 c165+ 3.0 c166+ 4.0 c167+ 1.0 c168+ 1.0 c169+ 1.0 c170+ 1.0 c171+ 1.0 c172+ 9.0 c173+ 2.0 c174+ 3.0 c175+ 4.0 c176+ 4.0 c177+ 1.0 c178+ 2.0 c179+ 3.0 c180+ 1.0 c181+ 1.0 c182+ 2.0 c183+ 3.0 c184+ 4.0 c185+ 2.0 c186+ 3.0 c187+ 2.0 c188+ 1.0 c189+ 1.0 c190+ 2.0 c191+ 1.0 c192+ 1.0 c193+ 2.0 c194+ 1.0 c195+ 1.0 c196+ 8.0 c197+ 1.0 c198+ 3.0 c199+ 1.0 c200+ 1.0 c201+ 1.0 c202+ 1.0 c203+ 1.0 c204+ 1.0 c205+ 1.0 c206+ 2.0 c207+ 1.0 c208+ 4.0 c209+ 2.0 c210+ 3.0 c211+ 3.0 c212+ 3.0 c213+ 1.0 c214+ 1.0 c215+ 1.0 c216+ 2.0 c217+ 1.0 c218+ 4.0 c219+ 2.0 c220+ 2.0 c221+ 4.0 c222+ 2.0 c223+ 1.0 c224+ 1.0 c225+ 1.0 c226+ 2.0 c227+ 1.0 c228+ 1.0 c229+ 1.0 c230+ 3.0 c231+ 2.0 c232+ 1.0 c233+ 2.0 c234+ 1.0 c235+ 1.0 c236+ 1.0 c237+ 1.0 c238+ 1.0 c239+ 1.0 c240+ 1.0 c241+ 2.0 c242+ 2.0 c243+ 1.0 c244+ 1.0 c245+ 1.0 c246+ 1.0 c247+ 1.0 c248+ 1.0 c249+ 1.0 c250+ 1.0 c251+ 1.0 c252+ 1.0 c253+ 1.0 c254+ 1.0 c255+ 1.0 c256+ 1.0 c257+ 1.0 c258+ 1.0 c259+ 1.0 c260+ 1.0 c261+ 1.0 c262+ 1.0 c263+ 1.0 c264+ 3.0 c265+ 1.0 c266+ 2.0 c267+ 1.0 c268+ 1.0 c269+ 1.0 c270+ 1.0 c271+ 1.0 c272+ 3.0 c273+ 3.0 c274+ 3.0 c275+ 1.0 c276+ 1.0 c277+ 1.0 c278+ 1.0 c279+ 1.0 c280+ 1.0 c281+ 1.0 c282+ 1.0 c283+ 1.0 c284+ 1.0 c285+ 1.0 c286+ 3.0 c287+ 1.0 c288+ 2.0 c289+ 1.0 c290+ 1.0 c291+ 1.0 c292+ 1.0 c293+ 1.0 c294+ 2.0 c295+ 1.0 c296+ 1.0 c297+ 1.0 c298+ 1.0 c299+ 1.0 c300+ 1.0 c301+ 1.0 c302+ 1.0 c303+ 2.0 c304+ 3.0 c305+ 1.0 c306+ 1.0 c307+ 1.0 c308+ 4.0 c309+ 2.0 c310+ 1.0 c311+ 1.0 c312+ 1.0 c313+ 1.0 c314+ 1.0 c315+ 1.0 c316+ 1.0 c317+ 1.0 c318+ 1.0 c319+ 1.0 c320+ 1.0 c321+ 1.0 c322+ 1.0 c323+ 1.0 c324+ 1.0 c325+ 1.0 c326+ 1.0 c327+ 1.0 c328+ 1.0 c329+ 1.0 c330+ 1.0 c331+ 1.0 c332+ 1.0 c333+ 1.0 c334+ 1.0 c335+ 1.0 c336+ 1.0 c337+ 1.0 c338+ 1.0 c339+ 1.0 c340+ 1.0 c341+ 1.0 c342+ 1.0 c343+ 1.0 c344+ 1.0 c345+ 1.0 c346+ 1.0 c347+ 2.0 c348+ 1.0 c349+ 3.0 c350+ 1.0 c351+ 1.0 c352+ 1.0 c353+ 1.0 c354+ 1.0 c355+ 2.0 c356+ 1.0 c357+ 1.0 c358+ 1.0 c359+ 1.0 c360+ 1.0 c361+ 1.0 c362+ 1.0 c363+ 1.0 c364+ 1.0 c365+ 1.0 c366+ 1.0 c367+ 1.0 c368+ 1.0 c369+ 1.0 c370+ 1.0 c371+ 1.0 c372+ 2.0 c373+ 1.0 c374+ 1.0 c375+ 2.0 c376+ 1.0 c377+ 2.0 c378+ 1.0 c379+ 1.0 c380+ 1.0 c381+ 1.0 c382+ 1.0 c383+ 1.0 c384+ 1.0 c385+ 1.0 c386+ 1.0 c387+ 1.0 c388+ 1.0 c389+ 1.0 c390+ 1.0 c391

Subject To
length: c0 + c1 + c2 + c3 + c4 + c5 + c6 + c7 + c8 + c9 + c10 + c11 + c12 + c13 + c14 + c15 + c16 + c17 + c18 + c19 + c20 + c21 + c22 + c23 + c24 + c25 + c26 + c27 + c28 + c29 + c30 + c31 + c32 + c33 + c34 + c35 + c36 + c37 + c38 + c39 + c40 + c41 + c42 + c43 + c44 + c45 + c46 + c47 + c48 + c49 + c50 + c51 + c52 + c53 + c54 + c55 + c56 + c57 + c58 + c59 + c60 + c61 + c62 + c63 + c64 + c65 + c66 + c67 + c68 + c69 + c70 + c71 + c72 + c73 + c74 + c75 + c76 + c77 + c78 + c79 + c80 + c81 + c82 + c83 + c84 + c85 + c86 + c87 + c88 + c89 + c90 + c91 + c92 + c93 + c94 + c95 + c96 + c97 + c98 + c99 + c100 + c101 + c102 + c103 + c104 + c105 + c106 + c107 + c108 + c109 + c110 + c111 + c112 + c113 + c114 + c115 + c116 + c117 + c118 + c119 + c120 + c121 + c122 + c123 + c124 + c125 + c126 + c127 + c128 + c129 + c130 + c131 + c132 + c133 + c134 + c135 + c136 + c137 + c138 + c139 + c140 + c141 + c142 + c143 + c144 + c145 + c146 + c147 + c148 + c149 + c150 + c151 + c152 + c153 + c154 + c155 + c156 + c157 + c158 + c159 + c160 + c161 + c162 + c163 + c164 + c165 + c166 + c167 + c168 + c169 + c170 + c171 + c172 + c173 + c174 + c175 + c176 + c177 + c178 + c179 + c180 + c181 + c182 + c183 + c184 + c185 + c186 + c187 + c188 + c189 + c190 + c191 + c192 + c193 + c194 + c195 + c196 + c197 + c198 + c199 + c200 + c201 + c202 + c203 + c204 + c205 + c206 + c207 + c208 + c209 + c210 + c211 + c212 + c213 + c214 + c215 + c216 + c217 + c218 + c219 + c220 + c221 + c222 + c223 + c224 + c225 + c226 + c227 + c228 + c229 + c230 + c231 + c232 + c233 + c234 + c235 + c236 + c237 + c238 + c239 + c240 + c241 + c242 + c243 + c244 + c245 + c246 + c247 + c248 + c249 + c250 + c251 + c252 + c253 + c254 + c255 + c256 + c257 + c258 + c259 + c260 + c261 + c262 + c263 + c264 + c265 + c266 + c267 + c268 + c269 + c270 + c271 + c272 + c273 + c274 + c275 + c276 + c277 + c278 + c279 + c280 + c281 + c282 + c283 + c284 + c285 + c286 + c287 + c288 + c289 + c290 + c291 + c292 + c293 + c294 + c295 + c296 + c297 + c298 + c299 + c300 + c301 + c302 + c303 + c304 + c305 + c306 + c307 + c308 + c309 + c310 + c311 + c312 + c313 + c314 + c315 + c316 + c317 + c318 + c319 + c320 + c321 + c322 + c323 + c324 + c325 + c326 + c327 + c328 + c329 + c330 + c331 + c332 + c333 + c334 + c335 + c336 + c337 + c338 + c339 + c340 + c341 + c342 + c343 + c344 + c345 + c346 + c347 + c348 + c349 + c350 + c351 + c352 + c353 + c354 + c355 + c356 + c357 + c358 + c359 + c360 + c361 + c362 + c363 + c364 + c365 + c366 + c367 + c368 + c369 + c370 + c371 + c372 + c373 + c374 + c375 + c376 + c377 + c378 + c379 + c380 + c381 + c382 + c383 + c384 + c385 + c386 + c387 + c388 + c389 + c390 + c391 < 4

Binary
c0
c1
c2
c3
c4
c5
c6
c7
c8
c9
c10
c11
c12
c13
c14
c15
c16
c17
c18
c19
c20
c21
c22
c23
c24
c25
c26
c27
c28
c29
c30
c31
c32
c33
c34
c35
c36
c37
c38
c39
c40
c41
c42
c43
c44
c45
c46
c47
c48
c49
c50
c51
c52
c53
c54
c55
c56
c57
c58
c59
c60
c61
c62
c63
c64
c65
c66
c67
c68
c69
c70
c71
c72
c73
c74
c75
c76
c77
c78
c79
c80
c81
c82
c83
c84
c85
c86
c87
c88
c89
c90
c91
c92
c93
c94
c95
c96
c97
c98
c99
c100
c101
c102
c103
c104
c105
c106
c107
c108
c109
c110
c111
c112
c113
c114
c115
c116
c117
c118
c119
c120
c121
c122
c123
c124
c125
c126
c127
c128
c129
c130
c131
c132
c133
c134
c135
c136
c137
c138
c139
c140
c141
c142
c143
c144
c145
c146
c147
c148
c149
c150
c151
c152
c153
c154
c155
c156
c157
c158
c159
c160
c161
c162
c163
c164
c165
c166
c167
c168
c169
c170
c171
c172
c173
c174
c175
c176
c177
c178
c179
c180
c181
c182
c183
c184
c185
c186
c187
c188
c189
c190
c191
c192
c193
c194
c195
c196
c197
c198
c199
c200
c201
c202
c203
c204
c205
c206
c207
c208
c209
c210
c211
c212
c213
c214
c215
c216
c217
c218
c219
c220
c221
c222
c223
c224
c225
c226
c227
c228
c229
c230
c231
c232
c233
c234
c235
c236
c237
c238
c239
c240
c241
c242
c243
c244
c245
c246
c247
c248
c249
c250
c251
c252
c253
c254
c255
c256
c257
c258
c259
c260
c261
c262
c263
c264
c265
c266
c267
c268
c269
c270
c271
c272
c273
c274
c275
c276
c277
c278
c279
c280
c281
c282
c283
c284
c285
c286
c287
c288
c289
c290
c291
c292
c293
c294
c295
c296
c297
c298
c299
c300
c301
c302
c303
c304
c305
c306
c307
c308
c309
c310
c311
c312
c313
c314
c315
c316
c317
c318
c319
c320
c321
c322
c323
c324
c325
c326
c327
c328
c329
c330
c331
c332
c333
c334
c335
c336
c337
c338
c339
c340
c341
c342
c343
c344
c345
c346
c347
c348
c349
c350
c351
c352
c353
c354
c355
c356
c357
c358
c359
c360
c361
c362
c363
c364
c365
c366
c367
c368
c369
c370
c371
c372
c373
c374
c375
c376
c377
c378
c379
c380
c381
c382
c383
c384
c385
c386
c387
c388
c389
c390
c391
